(declare-fun var0 () String)
(assert (str.in.re var0 (re.++ (re.union (re.union (str.to.re "gg") (str.to.re "h")) (re.* (str.to.re "i"))) (re.++ (re.* (re.* (str.to.re "f"))) (re.++ (re.+ (re.union (str.to.re "ddd") (str.to.re "eee"))) (re.++ (re.* (re.union (str.to.re "bbb") (str.to.re "cc"))) (re.++ (re.union (re.* (str.to.re "99")) (re.* (str.to.re "a"))) (re.++ (re.+ (re.* (str.to.re "888"))) (re.++ (re.union (re.union (str.to.re "555") (str.to.re "6")) (re.+ (str.to.re "77"))) (re.++ (re.* (re.+ (str.to.re "4"))) (re.++ (re.+ (re.+ (str.to.re "33"))) (re.union (re.union (str.to.re "0") (str.to.re "11")) (re.+ (str.to.re "222"))))))))))))))
(assert (<= 201 (str.len var0)))
(check-sat)